# Solution for model problem_
# Objective value = 1.8464479234709448e+05
x(0_0) 0
x(0_1) 0
x(0_2) 0
x(0_3) 0
x(0_4) 0
x(0_5) 0
x(0_6) 0
x(0_7) 0
x(0_8) 0
x(0_9) 0
x(0_10) 1
x(0_11) 0
x(0_12) 0
x(0_13) 0
x(0_14) 0
x(0_15) 0
x(1_16) 0
x(1_17) 0
x(1_18) 0
x(1_19) 0
x(1_20) 0
x(1_21) 0
x(1_22) 0
x(1_23) 0
x(1_24) 1
x(1_25) 0
x(1_26) 0
x(1_27) 0
x(2_28) 1
x(2_29) 0
x(2_30) 0
x(2_31) 0
x(2_32) 0
x(2_33) 0
x(2_34) 0
x(2_35) 0
x(2_36) 0
x(2_37) 0
x(2_38) 0
x(2_39) 0
x(2_40) 0
x(3_41) 0
x(3_42) 0
x(3_43) 0
x(3_44) 0
x(3_45) 0
x(3_46) 0
x(3_47) 0
x(3_48) 1
x(3_49) 0
x(3_50) 0
x(3_51) 0
x(3_52) 0
x(3_53) 0
x(3_54) 0
x(3_55) 0
x(3_56) 0
x(4_57) 0
x(4_58) 1
x(4_59) 0
x(4_60) 0
x(4_61) 0
x(4_62) 0
x(4_63) 0
x(4_64) 0
x(4_65) 0
x(4_66) 0
x(4_67) 0
x(4_68) 0
x(4_69) 0
x(4_70) 0
x(4_71) 0
x(4_72) 0
x(4_73) 0
x(5_74) 0
x(5_75) 0
x(5_76) 0
x(5_77) 0
x(5_78) 0
x(5_79) 0
x(5_80) 0
x(5_81) 0
x(5_82) 1
x(5_83) 0
x(5_84) 0
x(5_85) 0
x(5_86) 0
x(6_87) 0
x(6_88) 0
x(6_89) 0
x(6_90) 0
x(6_91) 0
x(6_92) 1
x(6_93) 0
x(6_94) 0
x(6_95) 0
x(6_96) 0
x(6_97) 0
x(6_98) 0
x(7_99) 0
x(7_100) 0
x(7_101) 0
x(7_102) 0
x(7_103) 0
x(7_104) 0
x(7_105) 0
x(7_106) 0
x(7_107) 0
x(7_108) 1
x(7_109) 0
x(7_110) 0
x(7_111) 0
x(7_112) 0
x(7_113) 0
x(7_114) 0
x(7_115) 0
x(7_116) 0
x(7_117) 0
x(7_118) 0
x(8_119) 0
x(8_120) 0
x(8_121) 0
x(8_122) 0
x(8_123) 0
x(8_124) 0
x(8_125) 0
x(8_126) 0
x(8_127) 0
x(8_128) 0
x(8_129) 0
x(8_130) 0
x(8_131) 0
x(8_132) 0
x(8_133) 1
x(9_134) 0
x(9_135) 0
x(9_136) 0
x(9_137) 0
x(9_138) 0
x(9_139) 0
x(9_140) 0
x(9_141) 0
x(9_142) 1
x(9_143) 0
x(9_144) 0
x(10_145) 0
x(10_146) 1
x(10_147) 0
x(10_148) 0
x(10_149) 0
x(10_150) 0
x(10_151) 0
x(10_152) 0
x(10_153) 0
x(10_154) 0
x(10_155) 0
x(10_156) 0
x(10_157) 0
x(10_158) 0
x(10_159) 0
x(11_160) 1
x(11_161) 0
x(11_162) 0
x(11_163) 0
x(11_164) 0
x(11_165) 0
x(11_166) 0
x(11_167) 0
x(11_168) 0
x(11_169) 0
x(11_170) 0
x(11_171) 0
x(11_172) 0
x(11_173) 0
x(11_174) 0
x(11_175) 0
x(12_176) 1
x(12_177) 0
x(12_178) 0
x(12_179) 0
x(12_180) 0
x(12_181) 0
x(12_182) 0
x(12_183) 0
x(12_184) 0
x(12_185) 0
x(12_186) 0
x(12_187) 0
x(12_188) 0
x(13_189) 0
x(13_190) 0
x(13_191) 0
x(13_192) 0
x(13_193) 0
x(13_194) 0
x(13_195) 0
x(13_196) 0
x(13_197) 0
x(13_198) 0
x(13_199) 1
x(13_200) 0
x(13_201) 0
x(13_202) 0
x(13_203) 0
x(13_204) 0
x(13_205) 0
x(14_206) 0
x(14_207) 0
x(14_208) 0
x(14_209) 0
x(14_210) 0
x(14_211) 0
x(14_212) 0
x(14_213) 0
x(14_214) 1
x(14_215) 0
x(14_216) 0
x(14_217) 0
x(14_218) 0
x(14_219) 0
x(14_220) 0
x(14_221) 0
x(14_222) 0
x(14_223) 0
x(15_224) 0
x(15_225) 0
x(15_226) 0
x(15_227) 0
x(15_228) 0
x(15_229) 0
x(15_230) 0
x(15_231) 0
x(15_232) 1
x(15_233) 0
x(15_234) 0
x(15_235) 0
x(15_236) 0
x(15_237) 0
x(16_238) 0
x(16_239) 0
x(16_240) 0
x(16_241) 0
x(16_242) 0
x(16_243) 0
x(16_244) 1
x(16_245) 0
x(16_246) 0
x(16_247) 0
x(16_248) 0
x(16_249) 0
x(16_250) 0
x(16_251) 0
x(16_252) 0
x(16_253) 0
x(17_254) 0
x(17_255) 0
x(17_256) 0
x(17_257) 0
x(17_258) 0
x(17_259) 0
x(17_260) 1
x(17_261) 0
x(17_262) 0
x(17_263) 0
x(17_264) 0
x(17_265) 0
x(17_266) 0
x(17_267) 0
x(17_268) 0
x(17_269) 0
x(18_270) 0
x(18_271) 1
x(18_272) 0
x(18_273) 0
x(18_274) 0
x(18_275) 0
x(18_276) 0
x(18_277) 0
x(18_278) 0
x(18_279) 0
x(18_280) 0
x(19_281) 0
x(19_282) 0
x(19_283) 0
x(19_284) 0
x(19_285) 0
x(19_286) 0
x(19_287) 0
x(19_288) 0
x(19_289) 0
x(19_290) 0
x(19_291) 0
x(19_292) 0
x(19_293) 0
x(19_294) 1
x(19_295) 0
x(19_296) 0
x(19_297) 0
x(20_298) 0
x(20_299) 0
x(20_300) 0
x(20_301) 0
x(20_302) 1
x(20_303) 0
x(20_304) 0
x(20_305) 0
x(20_306) 0
x(20_307) 0
x(20_308) 0
x(20_309) 0
x(21_310) 0
x(21_311) 0
x(21_312) 0
x(21_313) 0
x(21_314) 0
x(21_315) 0
x(21_316) 0
x(21_317) 0
x(21_318) 0
x(21_319) 0
x(21_320) 0
x(21_321) 0
x(21_322) 0
x(21_323) 1
x(22_324) 0
x(22_325) 0
x(22_326) 0
x(22_327) 0
x(22_328) 0
x(22_329) 0
x(22_330) 1
x(22_331) 0
x(22_332) 0
x(22_333) 0
x(22_334) 0
x(22_335) 0
x(22_336) 0
x(22_337) 0
x(22_338) 0
x(22_339) 0
x(22_340) 0
x(23_341) 0
x(23_342) 0
x(23_343) 0
x(23_344) 0
x(23_345) 0
x(23_346) 0
x(23_347) 0
x(23_348) 0
x(23_349) 0
x(23_350) 0
x(23_351) 0
x(23_352) 0
x(23_353) 0
x(23_354) 1
x(23_355) 0
x(24_356) 0
x(24_357) 0
x(24_358) 1
x(24_359) 0
x(24_360) 0
x(24_361) 0
x(24_362) 0
x(24_363) 0
x(24_364) 0
x(24_365) 0
x(25_366) 0
x(25_367) 0
x(25_368) 0
x(25_369) 1
x(25_370) 0
x(25_371) 0
x(25_372) 0
x(25_373) 0
x(25_374) 0
x(25_375) 0
x(25_376) 0
x(25_377) 0
x(25_378) 0
x(25_379) 0
x(25_380) 0
x(25_381) 0
x(25_382) 0
x(26_383) 0
x(26_384) 0
x(26_385) 0
x(26_386) 0
x(26_387) 0
x(26_388) 0
x(26_389) 0
x(26_390) 0
x(26_391) 0
x(26_392) 0
x(26_393) 0
x(26_394) 0
x(26_395) 1
x(26_396) 0
x(26_397) 0
x(26_398) 0
x(26_399) 0
x(26_400) 0
x(26_401) 0
x(27_402) 0
x(27_403) 0
x(27_404) 0
x(27_405) 0
x(27_406) 0
x(27_407) 0
x(27_408) 1
x(27_409) 0
x(27_410) 0
x(27_411) 0
x(27_412) 0
x(27_413) 0
x(27_414) 0
x(27_415) 0
x(27_416) 0
x(27_417) 0
x(27_418) 0
x(27_419) 0
x(27_420) 0
x(28_421) 0
x(28_422) 0
x(28_423) 0
x(28_424) 0
x(28_425) 0
x(28_426) 0
x(28_427) 0
x(28_428) 0
x(28_429) 0
x(28_430) 0
x(28_431) 0
x(28_432) 0
x(28_433) 0
x(28_434) 0
x(28_435) 0
x(28_436) 1
x(28_437) 0
x(28_438) 0
x(28_439) 0
x(29_440) 0
x(29_441) 0
x(29_442) 0
x(29_443) 0
x(29_444) 0
x(29_445) 0
x(29_446) 0
x(29_447) 1
x(29_448) 0
x(29_449) 0
x(29_450) 0
x(29_451) 0
x(29_452) 0
x(29_453) 0
x(30_454) 0
x(30_455) 0
x(30_456) 0
x(30_457) 0
x(30_458) 0
x(30_459) 0
x(30_460) 0
x(30_461) 0
x(30_462) 0
x(30_463) 0
x(30_464) 0
x(30_465) 0
x(30_466) 0
x(30_467) 0
x(30_468) 1
x(30_469) 0
x(30_470) 0
x(30_471) 0
x(30_472) 0
x(31_473) 0
x(31_474) 0
x(31_475) 0
x(31_476) 0
x(31_477) 0
x(31_478) 0
x(31_479) 0
x(31_480) 0
x(31_481) 1
x(31_482) 0
x(31_483) 0
x(31_484) 0
x(31_485) 0
x(31_486) 0
x(31_487) 0
x(32_488) 0
x(32_489) 0
x(32_490) 0
x(32_491) 0
x(32_492) 0
x(32_493) 0
x(32_494) 0
x(32_495) 0
x(32_496) 0
x(32_497) 0
x(32_498) 0
x(32_499) 1
x(32_500) 0
x(32_501) 0
x(32_502) 0
x(33_503) 0
x(33_504) 0
x(33_505) 0
x(33_506) 0
x(33_507) 0
x(33_508) 0
x(33_509) 0
x(33_510) 1
x(33_511) 0
x(33_512) 0
x(33_513) 0
x(33_514) 0
x(33_515) 0
x(33_516) 0
x(34_517) 0
x(34_518) 0
x(34_519) 0
x(34_520) 0
x(34_521) 0
x(34_522) 0
x(34_523) 0
x(34_524) 1
x(34_525) 0
x(34_526) 0
x(34_527) 0
x(35_528) 0
x(35_529) 0
x(35_530) 0
x(35_531) 0
x(35_532) 0
x(35_533) 0
x(35_534) 0
x(35_535) 0
x(35_536) 0
x(35_537) 0
x(35_538) 0
x(35_539) 0
x(35_540) 0
x(35_541) 0
x(35_542) 1
x(35_543) 0
x(35_544) 0
x(35_545) 0
x(36_546) 0
x(36_547) 0
x(36_548) 0
x(36_549) 1
x(36_550) 0
x(36_551) 0
x(36_552) 0
x(36_553) 0
x(36_554) 0
x(36_555) 0
x(36_556) 0
x(36_557) 0
x(36_558) 0
x(36_559) 0
x(36_560) 0
x(36_561) 0
x(37_562) 0
x(37_563) 0
x(37_564) 1
x(37_565) 0
x(37_566) 0
x(37_567) 0
x(37_568) 0
x(37_569) 0
x(37_570) 0
x(37_571) 0
x(38_572) 0
x(38_573) 0
x(38_574) 0
x(38_575) 0
x(38_576) 0
x(38_577) 0
x(38_578) 0
x(38_579) 0
x(38_580) 0
x(38_581) 0
x(38_582) 0
x(38_583) 0
x(38_584) 0
x(38_585) 0
x(38_586) 0
x(38_587) 0
x(38_588) 1
x(38_589) 0
x(39_590) 0
x(39_591) 0
x(39_592) 0
x(39_593) 0
x(39_594) 0
x(39_595) 0
x(39_596) 0
x(39_597) 0
x(39_598) 0
x(39_599) 0
x(39_600) 1
x(39_601) 0
x(39_602) 0
x(39_603) 0
x(39_604) 0
x(39_605) 0
x(39_606) 0
x(39_607) 0
x(40_608) 0
x(40_609) 0
x(40_610) 0
x(40_611) 0
x(40_612) 0
x(40_613) 0
x(40_614) 0
x(40_615) 0
x(40_616) 0
x(40_617) 0
x(40_618) 0
x(40_619) 1
x(40_620) 0
x(40_621) 0
x(41_622) 0
x(41_623) 0
x(41_624) 0
x(41_625) 0
x(41_626) 0
x(41_627) 1
x(41_628) 0
x(41_629) 0
x(41_630) 0
x(41_631) 0
x(41_632) 0
x(42_633) 0
x(42_634) 0
x(42_635) 0
x(42_636) 0
x(42_637) 1
x(42_638) 0
x(42_639) 0
x(42_640) 0
x(42_641) 0
x(42_642) 0
x(42_643) 0
x(42_644) 0
x(42_645) 0
x(42_646) 0
x(43_647) 0
x(43_648) 0
x(43_649) 0
x(43_650) 0
x(43_651) 0
x(43_652) 0
x(43_653) 1
x(43_654) 0
x(43_655) 0
x(43_656) 0
x(43_657) 0
x(43_658) 0
x(44_659) 0
x(44_660) 0
x(44_661) 0
x(44_662) 0
x(44_663) 0
x(44_664) 0
x(44_665) 1
x(44_666) 0
x(44_667) 0
x(44_668) 0
x(44_669) 0
x(44_670) 0
x(44_671) 0
x(45_672) 0
x(45_673) 0
x(45_674) 0
x(45_675) 0
x(45_676) 0
x(45_677) 0
x(45_678) 0
x(45_679) 0
x(45_680) 0
x(45_681) 1
x(45_682) 0
x(45_683) 0
x(45_684) 0
x(45_685) 0
x(45_686) 0
x(45_687) 0
x(45_688) 0
x(45_689) 0
x(46_690) 0
x(46_691) 0
x(46_692) 0
x(46_693) 0
x(46_694) 0
x(46_695) 0
x(46_696) 0
x(46_697) 0
x(46_698) 0
x(46_699) 1
x(46_700) 0
x(46_701) 0
x(46_702) 0
x(46_703) 0
x(46_704) 0
x(46_705) 0
x(46_706) 0
x(47_707) 0
x(47_708) 0
x(47_709) 0
x(47_710) 0
x(47_711) 1
x(47_712) 0
x(47_713) 0
x(47_714) 0
x(47_715) 0
x(47_716) 0
x(48_717) 0
x(48_718) 0
x(48_719) 0
x(48_720) 1
x(48_721) 0
x(48_722) 0
x(48_723) 0
x(48_724) 0
x(48_725) 0
x(48_726) 0
x(48_727) 0
x(48_728) 0
x(49_729) 0
x(49_730) 0
x(49_731) 0
x(49_732) 0
x(49_733) 0
x(49_734) 0
x(49_735) 0
x(49_736) 0
x(49_737) 0
x(49_738) 0
x(49_739) 0
x(49_740) 0
x(49_741) 1
x(49_742) 0
x(49_743) 0
x(49_744) 0
x(49_745) 0
x(50_746) 0
x(50_747) 0
x(50_748) 0
x(50_749) 0
x(50_750) 0
x(50_751) 0
x(50_752) 1
x(50_753) 0
x(50_754) 0
x(50_755) 0
x(50_756) 0
x(50_757) 0
x(51_758) 1
x(51_759) 0
x(51_760) 0
x(51_761) 0
x(51_762) 0
x(51_763) 0
x(51_764) 0
x(51_765) 0
x(51_766) 0
x(51_767) 0
x(51_768) 0
x(51_769) 0
x(51_770) 0
x(51_771) 0
x(51_772) 0
x(51_773) 0
x(51_774) 0
x(51_775) 0
x(52_776) 1
x(52_777) 0
x(52_778) 0
x(52_779) 0
x(52_780) 0
x(52_781) 0
x(52_782) 0
x(52_783) 0
x(52_784) 0
x(52_785) 0
x(52_786) 0
x(52_787) 0
x(52_788) 0
x(52_789) 0
x(53_790) 0
x(53_791) 0
x(53_792) 0
x(53_793) 0
x(53_794) 0
x(53_795) 0
x(53_796) 0
x(53_797) 0
x(53_798) 0
x(53_799) 0
x(53_800) 0
x(53_801) 0
x(53_802) 0
x(53_803) 0
x(53_804) 0
x(53_805) 0
x(53_806) 1
x(54_807) 0
x(54_808) 0
x(54_809) 0
x(54_810) 0
x(54_811) 0
x(54_812) 0
x(54_813) 1
x(54_814) 0
x(54_815) 0
x(54_816) 0
x(55_817) 0
x(55_818) 0
x(55_819) 0
x(55_820) 0
x(55_821) 0
x(55_822) 0
x(55_823) 0
x(55_824) 0
x(55_825) 0
x(55_826) 0
x(55_827) 0
x(55_828) 0
x(55_829) 0
x(55_830) 0
x(55_831) 1
x(55_832) 0
x(55_833) 0
x(56_834) 0
x(56_835) 0
x(56_836) 1
x(56_837) 0
x(56_838) 0
x(56_839) 0
x(56_840) 0
x(56_841) 0
x(56_842) 0
x(56_843) 0
x(56_844) 0
x(56_845) 0
x(56_846) 0
x(56_847) 0
x(56_848) 0
x(56_849) 0
x(56_850) 0
x(56_851) 0
x(56_852) 0
x(56_853) 0
x(57_854) 0
x(57_855) 0
x(57_856) 0
x(57_857) 0
x(57_858) 0
x(57_859) 0
x(57_860) 0
x(57_861) 1
x(57_862) 0
x(57_863) 0
x(58_864) 0
x(58_865) 0
x(58_866) 0
x(58_867) 0
x(58_868) 0
x(58_869) 1
x(58_870) 0
x(58_871) 0
x(58_872) 0
x(58_873) 0
x(58_874) 0
x(58_875) 0
x(58_876) 0
x(58_877) 0
x(59_878) 0
x(59_879) 0
x(59_880) 0
x(59_881) 0
x(59_882) 0
x(59_883) 0
x(59_884) 0
x(59_885) 0
x(59_886) 0
x(59_887) 0
x(59_888) 0
x(59_889) 0
x(59_890) 0
x(59_891) 0
x(59_892) 1
x(59_893) 0
x(59_894) 0
x(59_895) 0
x(60_896) 1
x(60_897) 0
x(60_898) 0
x(60_899) 0
x(60_900) 0
x(60_901) 0
x(60_902) 0
x(60_903) 0
x(60_904) 0
x(60_905) 0
x(60_906) 0
x(60_907) 0
x(60_908) 0
x(60_909) 0
x(60_910) 0
x(61_911) 0
x(61_912) 0
x(61_913) 0
x(61_914) 0
x(61_915) 0
x(61_916) 0
x(61_917) 0
x(61_918) 1
x(61_919) 0
x(61_920) 0
x(61_921) 0
x(61_922) 0
x(61_923) 0
x(61_924) 0
x(61_925) 0
x(61_926) 0
x(61_927) 0
x(61_928) 0
x(61_929) 0
x(61_930) 0
x(62_931) 0
x(62_932) 0
x(62_933) 1
x(62_934) 0
x(62_935) 0
x(62_936) 0
x(62_937) 0
x(62_938) 0
x(62_939) 0
x(62_940) 0
x(62_941) 0
x(63_942) 0
x(63_943) 0
x(63_944) 0
x(63_945) 0
x(63_946) 0
x(63_947) 0
x(63_948) 0
x(63_949) 0
x(63_950) 0
x(63_951) 1
x(63_952) 0
x(64_953) 1
x(64_954) 0
x(64_955) 0
x(64_956) 0
x(64_957) 0
x(64_958) 0
x(64_959) 0
x(64_960) 0
x(64_961) 0
x(64_962) 0
x(64_963) 0
x(64_964) 0
x(64_965) 0
x(64_966) 0
x(64_967) 0
x(64_968) 0
x(65_969) 0
x(65_970) 0
x(65_971) 0
x(65_972) 0
x(65_973) 0
x(65_974) 0
x(65_975) 0
x(65_976) 0
x(65_977) 0
x(65_978) 1
x(65_979) 0
x(65_980) 0
x(65_981) 0
x(65_982) 0
x(65_983) 0
x(65_984) 0
x(65_985) 0
x(65_986) 0
x(66_987) 0
x(66_988) 0
x(66_989) 0
x(66_990) 0
x(66_991) 0
x(66_992) 0
x(66_993) 0
x(66_994) 0
x(66_995) 0
x(66_996) 0
x(66_997) 1
x(67_998) 0
x(67_999) 0
x(67_1000) 0
x(67_1001) 0
x(67_1002) 0
x(67_1003) 1
x(67_1004) 0
x(67_1005) 0
x(67_1006) 0
x(67_1007) 0
x(67_1008) 0
x(67_1009) 0
x(67_1010) 0
x(67_1011) 0
x(68_1012) 0
x(68_1013) 1
x(68_1014) 0
x(68_1015) 0
x(68_1016) 0
x(68_1017) 0
x(68_1018) 0
x(68_1019) 0
x(68_1020) 0
x(68_1021) 0
x(68_1022) 0
x(68_1023) 0
x(69_1024) 0
x(69_1025) 0
x(69_1026) 0
x(69_1027) 0
x(69_1028) 0
x(69_1029) 0
x(69_1030) 0
x(69_1031) 0
x(69_1032) 0
x(69_1033) 0
x(69_1034) 0
x(69_1035) 0
x(69_1036) 0
x(69_1037) 0
x(69_1038) 0
x(69_1039) 0
x(69_1040) 1
x(69_1041) 0
x(69_1042) 0
x(69_1043) 0
x(70_1044) 0
x(70_1045) 0
x(70_1046) 0
x(70_1047) 0
x(70_1048) 0
x(70_1049) 0
x(70_1050) 0
x(70_1051) 0
x(70_1052) 0
x(70_1053) 0
x(70_1054) 0
x(70_1055) 1
x(71_1056) 0
x(71_1057) 0
x(71_1058) 0
x(71_1059) 0
x(71_1060) 0
x(71_1061) 0
x(71_1062) 0
x(71_1063) 0
x(71_1064) 0
x(71_1065) 0
x(71_1066) 0
x(71_1067) 0
x(71_1068) 0
x(71_1069) 0
x(71_1070) 1
x(71_1071) 0
x(71_1072) 0
x(71_1073) 0
x(71_1074) 0
x(71_1075) 0
x(72_1076) 0
x(72_1077) 0
x(72_1078) 0
x(72_1079) 1
x(72_1080) 0
x(72_1081) 0
x(72_1082) 0
x(72_1083) 0
x(72_1084) 0
x(72_1085) 0
x(72_1086) 0
x(72_1087) 0
x(72_1088) 0
x(72_1089) 0
x(72_1090) 0
x(73_1091) 0
x(73_1092) 0
x(73_1093) 0
x(73_1094) 1
x(73_1095) 0
x(73_1096) 0
x(73_1097) 0
x(73_1098) 0
x(73_1099) 0
x(73_1100) 0
x(73_1101) 0
x(73_1102) 0
x(73_1103) 0
x(73_1104) 0
x(73_1105) 0
x(74_1106) 0
x(74_1107) 0
x(74_1108) 1
x(74_1109) 0
x(74_1110) 0
x(74_1111) 0
x(74_1112) 0
x(74_1113) 0
x(74_1114) 0
x(74_1115) 0
x(75_1116) 0
x(75_1117) 0
x(75_1118) 0
x(75_1119) 0
x(75_1120) 0
x(75_1121) 0
x(75_1122) 0
x(75_1123) 0
x(75_1124) 0
x(75_1125) 0
x(75_1126) 1
x(75_1127) 0
x(75_1128) 0
x(75_1129) 0
x(75_1130) 0
x(75_1131) 0
x(75_1132) 0
x(75_1133) 0
x(75_1134) 0
x(75_1135) 0
x(76_1136) 0
x(76_1137) 0
x(76_1138) 1
x(76_1139) 0
x(76_1140) 0
x(76_1141) 0
x(76_1142) 0
x(76_1143) 0
x(76_1144) 0
x(76_1145) 0
x(77_1146) 0
x(77_1147) 0
x(77_1148) 0
x(77_1149) 0
x(77_1150) 0
x(77_1151) 0
x(77_1152) 0
x(77_1153) 0
x(77_1154) 0
x(77_1155) 0
x(77_1156) 0
x(77_1157) 0
x(77_1158) 0
x(77_1159) 0
x(77_1160) 0
x(77_1161) 1
x(78_1162) 1
x(78_1163) 0
x(78_1164) 0
x(78_1165) 0
x(78_1166) 0
x(78_1167) 0
x(78_1168) 0
x(78_1169) 0
x(78_1170) 0
x(78_1171) 0
x(78_1172) 0
x(78_1173) 0
x(78_1174) 0
x(78_1175) 0
x(78_1176) 0
x(78_1177) 0
x(78_1178) 0
x(79_1179) 1
x(79_1180) 0
x(79_1181) 0
x(79_1182) 0
x(79_1183) 0
x(79_1184) 0
x(79_1185) 0
x(79_1186) 0
x(79_1187) 0
x(79_1188) 0
x(79_1189) 0
x(80_1190) 0
x(80_1191) 0
x(80_1192) 0
x(80_1193) 0
x(80_1194) 0
x(80_1195) 0
x(80_1196) 0
x(80_1197) 0
x(80_1198) 1
x(80_1199) 0
x(80_1200) 0
x(80_1201) 0
x(80_1202) 0
x(80_1203) 0
x(81_1204) 0
x(81_1205) 0
x(81_1206) 0
x(81_1207) 0
x(81_1208) 0
x(81_1209) 0
x(81_1210) 0
x(81_1211) 0
x(81_1212) 0
x(81_1213) 0
x(81_1214) 0
x(81_1215) 0
x(81_1216) 0
x(81_1217) 0
x(81_1218) 0
x(81_1219) 0
x(81_1220) 0
x(81_1221) 1
x(82_1222) 0
x(82_1223) 0
x(82_1224) 0
x(82_1225) 0
x(82_1226) 0
x(82_1227) 0
x(82_1228) 1
x(82_1229) 0
x(82_1230) 0
x(82_1231) 0
x(82_1232) 0
x(82_1233) 0
x(82_1234) 0
x(82_1235) 0
x(82_1236) 0
x(82_1237) 0
x(82_1238) 0
x(82_1239) 0
x(83_1240) 0
x(83_1241) 0
x(83_1242) 0
x(83_1243) 0
x(83_1244) 0
x(83_1245) 0
x(83_1246) 1
x(83_1247) 0
x(83_1248) 0
x(83_1249) 0
x(83_1250) 0
x(83_1251) 0
x(84_1252) 0
x(84_1253) 0
x(84_1254) 0
x(84_1255) 0
x(84_1256) 0
x(84_1257) 0
x(84_1258) 0
x(84_1259) 0
x(84_1260) 0
x(84_1261) 0
x(84_1262) 0
x(84_1263) 0
x(84_1264) 1
x(84_1265) 0
x(84_1266) 0
x(84_1267) 0
x(84_1268) 0
x(84_1269) 0
x(84_1270) 0
x(84_1271) 0
x(85_1272) 0
x(85_1273) 0
x(85_1274) 0
x(85_1275) 0
x(85_1276) 0
x(85_1277) 0
x(85_1278) 0
x(85_1279) 0
x(85_1280) 0
x(85_1281) 0
x(85_1282) 1
x(85_1283) 0
x(85_1284) 0
x(85_1285) 0
x(85_1286) 0
x(85_1287) 0
x(85_1288) 0
x(85_1289) 0
x(85_1290) 0
x(86_1291) 0
x(86_1292) 0
x(86_1293) 1
x(86_1294) 0
x(86_1295) 0
x(86_1296) 0
x(86_1297) 0
x(86_1298) 0
x(86_1299) 0
x(86_1300) 0
x(86_1301) 0
x(86_1302) 0
x(86_1303) 0
x(86_1304) 0
x(86_1305) 0
x(86_1306) 0
x(86_1307) 0
x(86_1308) 0
x(86_1309) 0
x(87_1310) 0
x(87_1311) 0
x(87_1312) 0
x(87_1313) 0
x(87_1314) 1
x(87_1315) 0
x(87_1316) 0
x(87_1317) 0
x(87_1318) 0
x(87_1319) 0
x(87_1320) 0
x(87_1321) 0
x(87_1322) 0
x(88_1323) 0
x(88_1324) 0
x(88_1325) 0
x(88_1326) 0
x(88_1327) 0
x(88_1328) 0
x(88_1329) 0
x(88_1330) 0
x(88_1331) 0
x(88_1332) 1
x(88_1333) 0
x(88_1334) 0
x(88_1335) 0
x(88_1336) 0
x(88_1337) 0
x(88_1338) 0
x(88_1339) 0
x(89_1340) 0
x(89_1341) 0
x(89_1342) 0
x(89_1343) 0
x(89_1344) 0
x(89_1345) 0
x(89_1346) 0
x(89_1347) 0
x(89_1348) 0
x(89_1349) 0
x(89_1350) 0
x(89_1351) 1
x(90_1352) 0
x(90_1353) 1
x(90_1354) 0
x(90_1355) 0
x(90_1356) 0
x(90_1357) 0
x(90_1358) 0
x(90_1359) 0
x(90_1360) 0
x(90_1361) 0
x(91_1362) 0
x(91_1363) 0
x(91_1364) 0
x(91_1365) 0
x(91_1366) 0
x(91_1367) 0
x(91_1368) 0
x(91_1369) 0
x(91_1370) 0
x(91_1371) 1
x(91_1372) 0
x(91_1373) 0
x(91_1374) 0
x(91_1375) 0
x(92_1376) 0
x(92_1377) 0
x(92_1378) 0
x(92_1379) 0
x(92_1380) 0
x(92_1381) 0
x(92_1382) 0
x(92_1383) 0
x(92_1384) 0
x(92_1385) 0
x(92_1386) 0
x(92_1387) 1
x(92_1388) 0
x(92_1389) 0
x(92_1390) 0
x(92_1391) 0
x(92_1392) 0
x(92_1393) 0
x(92_1394) 0
x_1_0 3.6026993826264516e+02
s_1_0 0
z_1_0 9.9639730061737353e-01
x_1_1 0
s_1_1 6.3341743347700685e-01
z_1_1 1
x_1_2 0
s_1_2 1.1690114800658193e+00
z_1_2 1
x_1_3 4.9999054353923020e+04
s_1_3 5.0000945646076972e+04
z_1_3 5.0000945646076977e-01
x_1_4 0
s_1_4 2.0100626396306325e+00
z_1_4 1
x_1_5 3.6144364494079491e+02
s_1_5 0
z_1_5 0.996385563550592
x_1_6 0
s_1_6 2.4991404083557427e+00
z_1_6 1
x_1_7 0
s_1_7 1.5105575229390524e+00
z_1_7 1
x_1_8 0
s_1_8 1.7655452725011855e+00
z_1_8 1
x_1_9 0
s_1_9 1.3609913104664884e+00
z_1_9 1
x_1_10 0
s_1_10 1.3619741381180575e+00
z_1_10 1
x_1_11 4.9999385526734171e+04
s_1_11 5.0000614473265829e+04
z_1_11 5.0000614473265825e-01
x_1_12 3.5993006168026477e+02
s_1_12 0
z_1_12 9.9640069938319731e-01
x_1_13 3.5691699682758190e+02
s_1_13 0
z_1_13 9.9643083003172417e-01
x_1_14 3.6148044899200613e+02
s_1_14 0
z_1_14 0.99638519551008
x_1_15 0
s_1_15 0.724256310830242
z_1_15 1
x_1_16 4.9999505864383173e+04
s_1_16 5.0000494135616827e+04
z_1_16 5.0000494135616824e-01
x_1_17 0
s_1_17 1.0948412518773694e+00
z_1_17 1
x_1_18 0
s_1_18 1.0394483853597194e+00
z_1_18 1
x_1_19 3.6094650181010365e+02
s_1_19 0
z_1_19 0.996390534981899
x_1_20 3.5974925996128877e+02
s_1_20 0
z_1_20 9.9640250740038716e-01
x_1_21 4.9998760202005855e+04
s_1_21 5.0001239797994145e+04
z_1_21 5.0001239797994146e-01
x_1_22 3.6015178585238755e+02
s_1_22 0
z_1_22 9.9639848214147608e-01
x_1_23 3.6129507742030546e+02
s_1_23 0
z_1_23 9.9638704922579691e-01
x_1_24 4.9999006544205768e+04
s_1_24 5.0000993455794232e+04
z_1_24 5.0000993455794229e-01
x_1_25 4.9999112451408742e+04
s_1_25 5.0000887548591258e+04
z_1_25 5.0000887548591255e-01
x_1_26 3.6098061666544527e+02
s_1_26 0
z_1_26 9.9639019383334548e-01
x_1_27 0
s_1_27 2.1033822448225692e+00
z_1_27 1
x_1_28 0
s_1_28 1.2353441409650259e+00
z_1_28 1
x_1_29 0
s_1_29 2.0589461614727043e+00
z_1_29 1
x_1_30 0
s_1_30 1.6400982077320805e+00
z_1_30 1
x_1_31 0
s_1_31 1.6428286024965928e+00
z_1_31 1
x_1_32 3.6183219652902335e+02
s_1_32 0
z_1_32 9.9638167803470978e-01
x_1_33 3.6166603684797883e+02
s_1_33 0
z_1_33 9.9638333963152015e-01
x_1_34 3.6132184297312051e+02
s_1_34 0
z_1_34 9.9638678157026883e-01
x_1_35 0
s_1_35 8.6762095926678739e-01
z_1_35 1
x_1_36 0
s_1_36 1.0441399737901520e+00
z_1_36 1
x_1_37 3.5799133963510394e+02
s_1_37 0
z_1_37 9.9642008660364889e-01
x_1_38 4.9999472079393840e+04
s_1_38 5.0000527920606160e+04
z_1_38 5.0000527920606164e-01
x_1_39 4.9998639375712759e+04
s_1_39 5.0001360624287241e+04
z_1_39 5.0001360624287239e-01
x_1_40 0
s_1_40 1.4928626416367479e+00
z_1_40 1
x_1_41 3.5638521425309591e+02
s_1_41 0
z_1_41 0.996436147857469
x_1_42 3.6034000759385526e+02
s_1_42 0
z_1_42 9.9639659992406138e-01
x_1_43 0
s_1_43 1.6417679652804509e+00
z_1_43 1
x_1_44 4.9999093940181607e+04
s_1_44 5.0000906059818393e+04
z_1_44 0.500009060598184
x_1_45 3.6182039831111615e+02
s_1_45 0
z_1_45 9.9638179601688881e-01
x_1_46 0
s_1_46 1.1827869933331385e+00
z_1_46 1
x_1_47 0
s_1_47 1.8092941193026491e+00
z_1_47 1
x_1_48 0
s_1_48 9.9929304920806317e-01
z_1_48 1
x_1_49 3.5679781064482813e+02
s_1_49 0
z_1_49 9.9643202189355173e-01
x_1_50 3.6011985215730965e+02
s_1_50 0
z_1_50 9.9639880147842685e-01
x_1_51 0
s_1_51 1.2025312194891740e+00
z_1_51 1
x_1_52 4.9999230304087818e+04
s_1_52 5.0000769695912182e+04
z_1_52 5.0000769695912184e-01
x_1_53 3.5675955402546970e+02
s_1_53 0
z_1_53 9.9643240445974524e-01
x_1_54 3.6119912215974182e+02
s_1_54 0
z_1_54 9.9638800877840261e-01
x_1_55 3.5993530341795122e+02
s_1_55 0
z_1_55 9.9640064696582042e-01
x_1_56 3.6222800206206739e+02
s_1_56 0
z_1_56 9.9637771997937929e-01
x_1_57 0
s_1_57 2.6781632507918403e+00
z_1_57 1
x_1_58 0
s_1_58 1.09485211718129
z_1_58 1
x_1_59 3.5798009090313280e+02
s_1_59 0
z_1_59 9.9642019909096868e-01
x_1_60 3.5792081502615474e+02
s_1_60 0
z_1_60 9.9642079184973842e-01
x_1_61 359.75900524389
s_1_61 0
z_1_61 9.9640240994756113e-01
x_1_62 3.5821061944542453e+02
s_1_62 0
z_1_62 9.9641789380554580e-01
x_1_63 3.5669954688526923e+02
s_1_63 0
z_1_63 9.9643300453114725e-01
x_1_64 3.6178619600832462e+02
s_1_64 0
z_1_64 9.9638213803991671e-01
x_1_65 0
s_1_65 1.1335834514175076e+00
z_1_65 1
x_1_66 3.5799025559610163e+02
s_1_66 0
z_1_66 9.9642009744403892e-01
x_1_67 3.6199751411192119e+02
s_1_67 0
z_1_67 9.9638002485888078e-01
x_1_68 3.6194791481242282e+02
s_1_68 0
z_1_68 9.9638052085187578e-01
x_1_69 0
s_1_69 1.4527387827110942e+00
z_1_69 1
x_1_70 3.6217340830154717e+02
s_1_70 0
z_1_70 9.9637826591698453e-01
x_1_71 3.5789096282911487e+02
s_1_71 0
z_1_71 9.9642109037170890e-01
x_1_72 3.5954319773055613e+02
s_1_72 0
z_1_72 9.9640456802269450e-01
x_1_73 357.17508560032
s_1_73 0
z_1_73 9.9642824914399686e-01
x_1_74 0
s_1_74 9.2432945681503043e-01
z_1_74 1
x_1_75 3.5886314233858138e+02
s_1_75 0
z_1_75 9.9641136857661416e-01
x_1_76 3.6196715974141262e+02
s_1_76 0
z_1_76 0.996380328402586
x_1_77 3.5501080293674022e+02
s_1_77 0
z_1_77 9.9644989197063261e-01
x_1_78 0
s_1_78 1.9645325242017861e+00
z_1_78 1
x_1_79 3.5751672202441841e+02
s_1_79 0
z_1_79 9.9642483277975580e-01
x_1_80 3.5843492218013853e+02
s_1_80 0
z_1_80 9.9641565077819860e-01
x_1_81 3.5786106831766665e+02
s_1_81 0
z_1_81 9.9642138931682334e-01
x_1_82 0
s_1_82 9.4730331260416278e-01
z_1_82 1
x_1_83 3.6208147356845438e+02
s_1_83 0
z_1_83 9.9637918526431546e-01
x_1_84 3.5675161413475871e+02
s_1_84 0
z_1_84 9.9643248385865235e-01
x_1_85 0
s_1_85 2.2526275496056769e+00
z_1_85 1
x_1_86 3.6178804923407733e+02
s_1_86 0
z_1_86 9.9638211950765920e-01
x_1_87 3.6141354629026318e+02
s_1_87 0
z_1_87 9.9638586453709743e-01
x_1_88 3.5674638441762363e+02
s_1_88 0
z_1_88 9.9643253615582372e-01
x_1_89 3.5824797410704195e+02
s_1_89 0
z_1_89 9.9641752025892960e-01
x_1_90 3.5878097237419570e+02
s_1_90 0
z_1_90 0.996412190276258
x_1_91 0
s_1_91 1.3266118306455610e+00
z_1_91 1
x_1_92 3.5625944363884628e+02
s_1_92 0
z_1_92 9.9643740556361160e-01
x_1_93 3.6184053203929216e+02
s_1_93 0
z_1_93 9.9638159467960707e-01
x_1_94 360.443955354378
s_1_94 0
z_1_94 9.9639556044645616e-01
x_1_95 0
s_1_95 8.8411542610265315e-01
z_1_95 1
x_1_96 3.5990302054397762e+02
s_1_96 0
z_1_96 9.9640096979456028e-01
x_1_97 0
s_1_97 1.3247523091354196e+00
z_1_97 1
x_1_98 3.5649067536041548e+02
s_1_98 0
z_1_98 9.9643509324639579e-01
x_1_99 3.5952780020516366e+02
s_1_99 0
z_1_99 9.9640472199794838e-01
x_1_100 3.5808235160447657e+02
s_1_100 0
z_1_100 9.9641917648395517e-01
x_1_101 3.5856817528698593e+02
s_1_101 0
z_1_101 9.9641431824713012e-01
x_1_102 0
s_1_102 1.5722842708928511e+00
z_1_102 1
x_1_103 0
s_1_103 1.2751614418230020e+00
z_1_103 1
x_1_104 3.6055383363179862e+02
s_1_104 0
z_1_104 9.9639446166368206e-01
x_1_105 49999.0174485965
s_1_105 50000.9825514035
z_1_105 0.500009825514035
x_1_106 0
s_1_106 1.2697677221240156e+00
z_1_106 1
x_1_107 0
s_1_107 8.1464301369123859e-01
z_1_107 1
x_1_108 0
s_1_108 1.8431088183424436e+00
z_1_108 1
x_1_109 3.5836539924051613e+02
s_1_109 0
z_1_109 9.9641634600759488e-01
x_1_110 3.5999719028733671e+02
s_1_110 0
z_1_110 9.9640002809712669e-01
x_1_111 0
s_1_111 1.1810930346837267e+00
z_1_111 1
x_1_112 3.5926460632728413e+02
s_1_112 0
z_1_112 9.9640735393672719e-01
x_1_113 3.6131719923275523e+02
s_1_113 0
z_1_113 9.9638682800767242e-01
x_1_114 3.6158514554635622e+02
s_1_114 0
z_1_114 9.9638414854453650e-01
x_1_115 3.5604800972249359e+02
s_1_115 0
z_1_115 9.9643951990277513e-01
x_1_116 3.5734215547516942e+02
s_1_116 0
z_1_116 9.9642657844524829e-01
x_1_117 0
s_1_117 1.3220837020780891e+00
z_1_117 1
x_1_118 3.5770515620871447e+02
s_1_118 0
z_1_118 9.9642294843791290e-01
x_1_119 0
s_1_119 7.9618514771573246e-01
z_1_119 1
x_1_120 0
s_1_120 1.23026609653607
z_1_120 1
x_1_121 3.6118912180792540e+02
s_1_121 0
z_1_121 9.9638810878192074e-01
x_1_122 0
s_1_122 1.5439314271252442e+00
z_1_122 1
x_1_123 361.214413699694
s_1_123 0
z_1_123 0.996387855863003
x_1_124 3.6087351533213223e+02
s_1_124 0
z_1_124 9.9639126484667873e-01
x_1_125 3.6104353999951854e+02
s_1_125 0
z_1_125 9.9638956460000483e-01
x_1_126 3.6186884142980853e+02
s_1_126 0
z_1_126 9.9638131158570187e-01
x_1_127 3.6067350486107171e+02
s_1_127 0
z_1_127 9.9639326495138925e-01
x_1_128 3.6205156078748405e+02
s_1_128 0
z_1_128 9.9637948439212520e-01
x_1_129 3.6153374043945223e+02
s_1_129 0
z_1_129 9.9638466259560543e-01
x_1_130 0
s_1_130 1.3512104700494092e+00
z_1_130 1
x_1_131 0
s_1_131 0.990486786555266
z_1_131 1
x_1_132 0
s_1_132 1.3964297503698617e+00
z_1_132 1
x_1_133 355.939486033516
s_1_133 0
z_1_133 9.9644060513966481e-01
x_1_134 0
s_1_134 1.5429884931072593e+00
z_1_134 1
x_1_135 0
s_1_135 7.4367822769272607e-01
z_1_135 1
x_1_136 3.5812937375718320e+02
s_1_136 0
z_1_136 9.9641870626242812e-01
x_1_137 0
s_1_137 1.6382998387562111e+00
z_1_137 1
x_1_138 0
s_1_138 2.4969513307732996e+00
z_1_138 1
x_1_139 4.9999165336378363e+04
s_1_139 5.0000834663621637e+04
z_1_139 5.0000834663621641e-01
x_1_140 0
s_1_140 1.5774994687526487e+00
z_1_140 1
x_1_141 0
s_1_141 1.7213439460756490e+00
z_1_141 1
x_1_142 0
s_1_142 1.0401551721733995e+00
z_1_142 1
x_1_143 0
s_1_143 1.4793219498387771e+00
z_1_143 1
x_1_144 0
s_1_144 9.4002365338383242e-01
z_1_144 1
x_1_145 3.6174888218357228e+02
s_1_145 0
z_1_145 9.9638251117816423e-01
x_1_146 3.5987950201924832e+02
s_1_146 0
z_1_146 9.9640120497980755e-01
x_1_147 3.5783857744745910e+02
s_1_147 0
z_1_147 9.9642161422552544e-01
x_1_148 3.6001584042886680e+02
s_1_148 0
z_1_148 9.9639984159571127e-01
x_1_149 3.5907133432477713e+02
s_1_149 0
z_1_149 9.9640928665675221e-01
x_1_150 3.5945648841001093e+02
s_1_150 0
z_1_150 0.9964054351159
x_1_151 3.6146912887692451e+02
s_1_151 0
z_1_151 9.9638530871123077e-01
x_1_152 3.5624407246848568e+02
s_1_152 0
z_1_152 9.9643755927531508e-01
x_1_153 3.5755035623349249e+02
s_1_153 0
z_1_153 9.9642449643766506e-01
x_1_154 359.471047508996
s_1_154 0
z_1_154 0.99640528952491
x_1_155 3.5866783823259175e+02
s_1_155 0
z_1_155 0.996413321617674
x_1_156 3.5908939499128610e+02
s_1_156 0
z_1_156 9.9640910605008715e-01
x_1_157 3.5913011810742319e+02
s_1_157 0
z_1_157 9.9640869881892580e-01
x_1_158 3.5754309482032841e+02
s_1_158 0
z_1_158 9.9642456905179666e-01
x_1_159 361.762843416087
s_1_159 0
z_1_159 9.9638237156583920e-01
x_2_0 1.8288137234709447e+05
